
******************************************************************************
This program contains Ipopt, a library for large-scale nonlinear optimization.
 Ipopt is released as open source code under the Eclipse Public License (EPL).
         For more information visit http://projects.coin-or.org/Ipopt

This version of Ipopt was compiled from source code available at
    https://github.com/IDAES/Ipopt as part of the Institute for the Design of
    Advanced Energy Systems Process Systems Engineering Framework (IDAES PSE
    Framework) Copyright (c) 2018-2019. See https://github.com/IDAES/idaes-pse.

This version of Ipopt was compiled using HSL, a collection of Fortran codes
    for large-scale scientific computation.  All technical papers, sales and
    publicity material resulting from use of the HSL codes within IPOPT must
    contain the following acknowledgement:
        HSL, a collection of Fortran codes for large-scale scientific
        computation. See http://www.hsl.rl.ac.uk.
******************************************************************************

This is Ipopt version 3.13.2, running with linear solver ma27.

Number of nonzeros in equality constraint Jacobian...:      914
Number of nonzeros in inequality constraint Jacobian.:        0
Number of nonzeros in Lagrangian Hessian.............:      918

Total number of variables............................:      378
                     variables with only lower bounds:      108
                variables with lower and upper bounds:      216
                     variables with only upper bounds:        0
Total number of equality constraints.................:      376
Total number of inequality constraints...............:        0
        inequality constraints with only lower bounds:        0
   inequality constraints with lower and upper bounds:        0
        inequality constraints with only upper bounds:        0

iter    objective    inf_pr   inf_du lg(mu)  ||d||  lg(rg) alpha_du alpha_pr  ls
   0  0.0000000e+00 4.42e-01 4.46e-14  -1.0 0.00e+00    -  0.00e+00 0.00e+00   0
   1  8.2271263e+00 4.11e-01 1.17e+06  -1.0 3.14e+06    -  2.56e-02 7.07e-02h  3
   2  9.1532978e+00 4.09e-01 1.17e+06  -1.0 5.12e+06    -  1.22e-01 3.01e-03h  7
   3  4.0561755e+02 4.56e-01 3.00e+07  -1.0 8.94e+06    -  9.68e-02 2.44e-01h  2
   4  4.5736223e+02 4.51e-01 3.15e+07  -1.0 9.21e+06    -  1.15e-01 2.04e-02h  3
   5  5.2106933e+02 4.48e-01 3.22e+07  -1.0 1.32e+07    -  9.60e-02 1.57e-02h  4
   6  5.9960124e+02 4.44e-01 3.25e+07  -1.0 1.61e+07    -  1.07e-01 1.35e-02h  4
   7  5.8406228e+02 4.44e-01 3.30e+07  -1.0 2.48e+07    -  7.11e-02 1.89e-03f  5
   8  6.1557392e+02 4.41e-01 3.38e+07  -1.0 1.32e+07    -  1.39e-01 6.91e-03h  5
   9  6.1699072e+02 4.40e-01 3.28e+07  -1.0 8.26e+06  -4.0 1.53e-01 1.04e-03h  7
iter    objective    inf_pr   inf_du lg(mu)  ||d||  lg(rg) alpha_du alpha_pr  ls
  10  6.2912206e+02 4.25e-01 2.45e+08  -1.0 1.11e+07  -4.5 5.76e-02 3.44e-02h  3
  11  1.4538944e+03 1.39e+01 8.77e+08  -1.0 2.32e+07    -  5.48e-02 6.44e-02w  1
  12  1.4642618e+03 1.39e+01 8.76e+08  -1.0 9.61e+06    -  1.29e-01 1.14e-03w  1
  13  1.4520521e+03 1.38e+01 8.75e+08  -1.0 2.75e+07    -  6.39e-02 7.77e-04w  1
  14  6.6153128e+02 4.24e-01 2.43e+08  -1.0 2.76e+07    -  5.48e-02 4.02e-03h  4
  15  6.6156425e+02 4.24e-01 2.43e+08  -1.0 3.62e+07  -3.1 4.01e-02 2.61e-05h  9
  16r 6.6156425e+02 4.24e-01 9.99e+02  -0.4 0.00e+00  -1.8 0.00e+00 4.59e-07R 15
  17r 6.6156642e+02 4.21e-01 9.96e+02  -0.4 2.98e+03    -  5.30e-03 2.70e-03f  1
  18r 6.6156964e+02 4.15e-01 9.92e+02  -0.4 2.74e+03    -  1.24e-02 4.33e-03f  1
  19r 6.6157466e+02 4.17e-01 9.86e+02  -0.4 3.19e+03    -  8.52e-03 5.55e-03f  1
iter    objective    inf_pr   inf_du lg(mu)  ||d||  lg(rg) alpha_du alpha_pr  ls
  20r 6.6157523e+02 4.17e-01 9.85e+02  -0.4 2.94e+03    -  7.05e-04 9.69e-04f  1
  21r 6.6159512e+02 4.18e-01 9.63e+02  -0.4 2.82e+03    -  2.01e-02 2.33e-02f  1
  22r 6.6161279e+02 4.12e-01 9.83e+02  -0.4 3.70e+03    -  1.44e-02 2.46e-02f  1
  23r 6.6163207e+02 4.05e-01 9.35e+02  -0.4 2.58e+03    -  4.27e-02 2.69e-02f  1
  24r 6.6164581e+02 3.96e-01 9.24e+02  -0.4 2.65e+03    -  1.15e-02 2.04e-02f  1
  25r 6.6166727e+02 3.79e-01 9.49e+02  -0.4 2.97e+03    -  2.17e-02 3.29e-02f  1
  26  1.0653437e+03 3.77e-01 1.80e+05  -1.0 3.21e+07    -  5.96e-02 2.44e-02h  2
  27  1.3443298e+03 3.71e-01 1.58e+05  -1.0 2.51e+07    -  1.11e-01 1.68e-02h  2
  28  1.6810292e+03 3.64e-01 1.41e+05  -1.0 2.26e+07    -  1.32e-01 1.95e-02h  1
  29  1.6746581e+03 3.64e-01 1.41e+05  -1.0 3.14e+08    -  1.22e-02 2.27e-04f  1
iter    objective    inf_pr   inf_du lg(mu)  ||d||  lg(rg) alpha_du alpha_pr  ls
  30  1.6353851e+03 3.63e-01 5.21e+05  -1.0 2.60e+07    -  5.04e-02 2.79e-03f  1
  31  1.6352355e+03 3.63e-01 1.31e+09  -1.0 2.58e+07  -2.3 4.99e-02 1.04e-05h  1
  32  1.5360675e+03 3.60e-01 1.24e+09  -1.0 2.59e+07    -  5.12e-02 7.04e-03f  5
  33  1.5218543e+03 3.60e-01 1.22e+09  -1.0 2.00e+08    -  2.04e-02 3.96e-04f  6
  34  1.4385259e+03 3.58e-01 1.15e+09  -1.0 2.54e+07    -  5.40e-02 6.71e-03f  5
  35  1.4211464e+03 3.58e-01 1.75e+09  -1.0 9.36e+07  -2.8 2.23e-02 9.28e-04f  5
  36  1.4210308e+03 3.58e-01 1.50e+09  -1.0 1.01e+08    -  5.40e-02 5.51e-06f 13
  37  1.1692190e+03 3.48e+00 1.26e+11  -1.0 1.01e+08    -  6.12e-02 2.26e-02f  1
  38  1.1627018e+03 3.46e+00 1.26e+11  -1.0 8.76e+07    -  4.64e-03 4.05e-03f  2
  39  1.1256882e+03 3.47e+00 4.60e+11  -1.0 6.84e+07  -2.3 9.99e-03 1.41e-02f  1
iter    objective    inf_pr   inf_du lg(mu)  ||d||  lg(rg) alpha_du alpha_pr  ls
  40  1.1140814e+03 3.47e+00 4.60e+11  -1.0 8.03e+07    -  8.28e-03 1.94e-03f  1
  41  1.0955552e+03 3.47e+00 3.84e+12  -1.0 4.25e+08    -  5.21e-03 1.94e-03f  1
  42  1.0922067e+03 3.46e+00 3.87e+12  -1.0 1.36e+08    -  7.45e-03 3.47e-03f  2
  43r 1.0922067e+03 3.46e+00 1.00e+03   0.5 0.00e+00    -  0.00e+00 2.72e-07R 12
  44r 1.0922094e+03 2.64e+00 9.86e+02   0.5 2.47e+03    -  3.74e-02 1.29e-02f  1
  45r 1.0922094e+03 2.64e+00 9.99e+02   0.4 0.00e+00    -  0.00e+00 1.09e-07R  2
  46r 1.0922114e+03 3.37e+00 9.81e+02   0.4 2.21e+03    -  3.64e-02 1.77e-02f  1
  47r 1.0922117e+03 3.35e+00 9.74e+02   0.4 5.16e+03    -  4.05e-02 6.77e-03f  1
  48r 1.0922127e+03 3.30e+00 9.58e+02   0.4 6.10e+02    -  7.54e-03 1.59e-02f  1
  49r 1.0922125e+03 3.22e+00 9.36e+02   0.4 9.05e+02    -  1.11e-01 2.25e-02f  1
iter    objective    inf_pr   inf_du lg(mu)  ||d||  lg(rg) alpha_du alpha_pr  ls
  50r 1.0922089e+03 2.96e+00 8.61e+02   0.4 3.85e+02    -  2.76e-02 8.09e-02f  1
  51r 1.0922089e+03 2.95e+00 8.64e+02   0.4 3.32e+03    -  3.69e-04 4.66e-03f  1
  52r 1.0922088e+03 2.93e+00 8.26e+02   0.4 1.33e+02    -  5.07e-01 6.90e-03f  1
  53r 1.0922084e+03 2.58e+00 7.28e+02   0.4 1.16e+02    -  2.33e-01 1.19e-01f  1
  54r 1.0922116e+03 2.19e+00 1.97e+03   0.4 1.05e+02    -  8.02e-02 1.49e-01h  1
  55  1.3775161e+03 2.12e+00 3.63e+06  -1.0 1.73e+07    -  1.59e-01 3.55e-02h  1
  56  1.3806520e+03 2.12e+00 3.63e+06  -1.0 1.44e+07    -  1.47e-01 5.31e-04h  1
  57r 1.3806520e+03 2.12e+00 9.99e+02   0.3 0.00e+00    -  0.00e+00 3.21e-07R  5
  58r 1.3806517e+03 2.97e-01 9.98e+02   0.3 2.01e+03    -  1.37e-02 1.04e-03f  1
  59  1.3798843e+03 2.97e-01 8.88e+03  -1.0 4.03e+07    -  3.67e-02 1.78e-04f  1
iter    objective    inf_pr   inf_du lg(mu)  ||d||  lg(rg) alpha_du alpha_pr  ls
  60  1.3542720e+03 6.14e-01 1.33e+07  -1.0 4.23e+07    -  3.64e-02 1.67e-02f  1
  61  9.0806765e+02 3.22e+00 1.00e+07  -1.0 1.53e+07    -  1.53e-01 6.18e-02F  1
  62  7.5875849e+02 3.34e+00 9.73e+06  -1.0 6.48e+07    -  3.19e-02 2.76e-02f  1
  63r 7.5875849e+02 3.34e+00 1.00e+03   0.5 0.00e+00  -2.8 0.00e+00 3.02e-07R  5
  64r 7.5874641e+02 3.88e+01 9.89e+02   0.5 5.26e+03    -  3.70e-02 9.65e-03f  1
  65r 7.5874645e+02 3.87e+01 9.84e+02   0.5 6.42e+03    -  5.75e-02 3.60e-03f  1
  66r 7.5874627e+02 3.82e+01 9.70e+02   0.5 3.29e+03    -  1.63e-02 1.40e-02f  1
  67r 7.5874606e+02 3.74e+01 9.62e+02   0.5 4.58e+02    -  1.64e-03 1.94e-02f  1
  68r 7.5874605e+02 3.72e+01 9.40e+02   0.5 1.87e+03    -  1.08e-01 5.27e-03f  1
  69r 7.5874588e+02 3.06e+01 7.96e+02   0.5 1.36e+02    -  1.08e-01 1.77e-01f  1
iter    objective    inf_pr   inf_du lg(mu)  ||d||  lg(rg) alpha_du alpha_pr  ls
  70r 7.5874852e+02 2.06e+01 5.19e+02   0.5 1.03e+02    -  8.20e-01 3.28e-01f  1
  71r 7.5873453e+02 8.40e+00 2.19e+02   0.5 7.66e+01    -  4.43e-01 5.92e-01h  1
  72r 7.5870385e+02 4.44e-01 6.31e+02   0.5 1.89e+02    -  7.21e-01 1.00e+00h  1
  73  7.4817923e+02 4.42e-01 1.37e+04  -1.0 1.94e+07    -  1.58e-01 4.95e-03f  1
  74  6.7808801e+02 4.73e-01 6.72e+05  -1.0 8.41e+06    -  2.09e-01 6.03e-02f  1
  75  6.3701564e+02 3.90e+00 6.74e+05  -1.0 4.37e+06    -  2.55e-01 4.23e-02f  1
  76  6.3641101e+02 1.47e+01 4.12e+08  -1.0 4.12e+06    -  5.27e-03 7.41e-04f  1
  77  6.2480612e+02 4.32e+01 4.31e+08  -1.0 2.68e+07    -  6.15e-03 2.05e-02f  1
  78  5.6280094e+02 4.25e+01 7.63e+07  -1.0 1.83e+07    -  2.75e-05 1.56e-02f  1
  79  5.6281113e+02 4.25e+01 3.42e+08  -1.0 1.75e+06  -3.3 9.10e-02 1.77e-05h  2
iter    objective    inf_pr   inf_du lg(mu)  ||d||  lg(rg) alpha_du alpha_pr  ls
  80  5.0083184e+02 4.80e+01 2.74e+08  -1.0 1.95e+07    -  4.28e-04 1.54e-02f  1
  81r 5.0083184e+02 4.80e+01 9.99e+02   1.7 0.00e+00  -3.8 0.00e+00 2.07e-07R  2
  82r 5.0083209e+02 3.89e+01 3.38e+08   1.7 7.81e+03    -  7.31e-03 1.17e-03f  1
  83  5.0079105e+02 1.43e+02 2.85e+01  -1.0 1.01e+06    -  6.02e-04 2.51e-04h  2
  84r 5.0079105e+02 1.43e+02 9.99e+02   2.2 0.00e+00    -  0.00e+00 2.71e-09R  2
  85r 5.0079108e+02 1.68e+01 2.07e+03   2.2 3.02e+04    -  1.80e-02 4.69e-03f  1
  86r 5.0079108e+02 1.68e+01 9.99e+02   1.2 0.00e+00    -  0.00e+00 1.71e-09R  2
  87r 5.0079090e+02 9.81e+00 6.65e+09   1.2 9.65e+03    -  6.51e-03 1.70e-03f  1
  88  3.2278034e+02 1.44e+01 1.41e+03  -1.0 1.46e+06    -  7.74e-02 9.90e-01f  1
  89r 3.2278034e+02 1.44e+01 9.99e+02   1.2 0.00e+00    -  0.00e+00 1.29e-09R  2
iter    objective    inf_pr   inf_du lg(mu)  ||d||  lg(rg) alpha_du alpha_pr  ls
  90r 3.2278031e+02 1.52e+01 2.28e+10   1.2 4.98e+03    -  2.42e-02 2.77e-04f  1
  91r 3.2278031e+02 5.50e+00 1.98e+17   1.2 6.16e-03  10.0 3.22e-03 8.98e-04H  1
  92  3.2277980e+02 1.43e+01 2.26e+19  -1.0 3.47e+10    -  5.12e-09 2.21e-09f  3
WARNING: Problem in step computation; switching to emergency mode.
  93r 3.2277980e+02 1.43e+01 9.99e+02   1.2 0.00e+00  19.9 0.00e+00 0.00e+00R  1
  94r 3.2277973e+02 1.40e+01 1.60e+04   1.2 1.43e+04    -  3.40e-02 9.90e-04f  1
  95r 3.2277846e+02 6.46e+00 1.98e+07   1.2 7.64e+02    -  1.29e-01 1.99e-02f  1
  96r 3.2277846e+02 6.46e+00 9.99e+02   0.8 0.00e+00    -  0.00e+00 1.31e-13R  2
  97r 3.2277826e+02 7.67e+00 5.14e+09   0.8 6.46e+03    -  6.14e-03 9.90e-04f  1
  98r 3.2277826e+02 1.29e+01 1.25e+07   0.8 4.32e-02   8.0 3.01e-01 6.01e-02f  3
  99r 3.2277826e+02 1.29e+01 2.12e+07   0.8 1.96e-01   7.5 1.30e-02 2.07e-04h  1
iter    objective    inf_pr   inf_du lg(mu)  ||d||  lg(rg) alpha_du alpha_pr  ls
 100r 3.2277826e+02 1.29e+01 2.05e+07   0.8 5.05e+00   7.0 1.01e-03 1.16e-03H  1
 101r 3.2277826e+02 1.29e+01 3.98e+07   0.8 5.59e+00   6.6 6.29e-03 1.49e-04h  2
 102r 3.2277826e+02 1.29e+01 3.84e+07   0.8 6.62e+00   6.1 7.98e-04 2.87e-03F  1
 103r 3.2277826e+02 7.75e+00 1.75e+17   0.8 6.63e+00   5.6 3.26e-03 5.77e-03h  1
WARNING: Problem in step computation; switching to emergency mode.
 104r 3.2277826e+02 7.75e+00 1.75e+17   0.8 6.63e+00  19.7 0.00e+00 0.00e+00R  1
WARNING: Problem in step computation; switching to emergency mode.
Restoration phase is called at point that is almost feasible,
  with constraint violation 0.000000e+00. Abort.
Restoration phase in the restoration phase failed.

Number of Iterations....: 104

                                   (scaled)                 (unscaled)
Objective...............:   3.2277825764554245e+02    3.2277825764554245e+02
Dual infeasibility......:   1.7488617563659389e+17    1.7488617563659389e+17
Constraint violation....:   7.7494173954426682e+00    7.7494173954426682e+00
Complementarity.........:   1.3005232105324176e+01    1.3005232105324176e+01
Overall NLP error.......:   4.5219083280690119e+14    1.7488617563659389e+17


Number of objective function evaluations             = 284
Number of objective gradient evaluations             = 71
Number of equality constraint evaluations            = 284
Number of inequality constraint evaluations          = 0
Number of equality constraint Jacobian evaluations   = 115
Number of inequality constraint Jacobian evaluations = 0
Number of Lagrangian Hessian evaluations             = 105
Total CPU secs in IPOPT (w/o function evaluations)   =      0.251
Total CPU secs in NLP function evaluations           =      3.028

EXIT: Restoration Failed!
